Route #1: 16 48 1 36 10 32 17 37
Route #2: 24 43 52 26 54 28
Route #3: 50 5 46 63 11 25 42 57
Route #4: 27 65 55 60 4 47 14 34
Route #5: 31 64 61 21 67 7
Route #6: 19 23 9 49 33 2 53 18
Route #7: 58 13 45 35 44 15 3 6 51 30
Route #8: 22 38 8 59 20 41 68 66
Route #9: 12 29 40 39 56 62
Cost 1167
Time 0.096244
